4 10
442 432 386 356 
0 70 71 81 89 1 8 32 26 63 79 69 4 66 81 59 78 5 57 9 33 4
1 86 91 33 26 59 68 6 3 77 85 72 25 42 65 91 2 46 61 99 86 2
2 27 17 91 96 74 66 30 37 56 51 13 96 97 67 7 49 94 58 6 34 1
3 24 14 62 69 19 15 70 62 51 4 23 8 99 22 74 56 92 3 31 41 4
4 21 19 75 70 13 12 59 63 9 52 24 30 8 73 95 37 51 94 77 77 2
5 77 69 32 23 79 70 34 24 89 78 15 53 48 3 20 89 51 97 96 17 3
6 95 92 16 19 45 45 66 72 27 8 97 19 27 10 22 59 77 99 69 27 2
7 47 43 77 81 17 20 68 58 74 90 97 67 100 99 83 25 76 75 52 3 3
8 49 48 21 23 98 89 54 56 4 34 42 15 3 85 34 91 31 2 85 94 4
9 99 89 50 44 85 90 36 45 20 4 51 9 74 88 18 99 4 32 54 92 3
